

































































51 34 
70 49 
36 63 
71 3 
0 47 
58 19 
73 
22 44 
10 6 
2 13 
52 
62 48 
4 12 
32 66 
16 59 
39 75 
9 43 
50 42 
68 
20 69 
28 54 
56 45 

65 
29 24 
35 60 
33 15 
64 
72 
57 74 
23 38 
31 67 
61 
76 46 
27 
26 30 
40 
14 

53 41 
25 
5 11 
55 
7 
17 21 
18 37 
8 
1 

